9052
1464
7444
2257
1662
5799
9265
2318
2261
8662
1019
682
1422
9445
5054
566
4324
7964
1788
4845
9541
5792
624
3058
8562
7569
9559
9061
9711
1728
6183
3542
7502
6244
6124
6641
2927
5118
7774
5598
5738
1092
8395
7957
8325
3859
8111
5637
5754
2415
3011
